HUN,8,6,993
0,19,2,26,1,13,5,28,3,6,4,20
2,5,0,1,1,25,4,24,3,9,5,29
0,30,1,8,2,26,4,23,5,3,3,13
0,18,1,12,2,26,3,16,4,17,5,30
1,10,0,5,2,12,5,29,3,11,4,29
2,4,1,26,0,14,4,3,3,18,5,5
1,14,0,22,2,29,4,6,3,15,5,8
1,6,0,7,2,24,5,10,3,15,4,20
